certificates/rado_a6_c274_N45.cnf
c Rad2 upper bound instance: x1 + 6*x2 - x3 = 274, interval [1,45]
p cnf 45 322
1 5 45 0
-1 -5 -45 0
2 6 45 0
-2 -6 -45 0
3 7 45 0
-3 -7 -45 0
4 8 45 0
-4 -8 -45 0
5 9 45 0
-5 -9 -45 0
6 10 45 0
-6 -10 -45 0
1 11 44 0
-1 -11 -44 0
7 11 45 0
-7 -11 -45 0
2 12 44 0
-2 -12 -44 0
8 12 45 0
-8 -12 -45 0
3 13 44 0
-3 -13 -44 0
9 13 45 0
-9 -13 -45 0
4 14 44 0
-4 -14 -44 0
10 14 45 0
-10 -14 -45 0
5 15 44 0
-5 -15 -44 0
11 15 45 0
-11 -15 -45 0
6 16 44 0
-6 -16 -44 0
12 16 45 0
-12 -16 -45 0
1 17 43 0
-1 -17 -43 0
7 17 44 0
-7 -17 -44 0
13 17 45 0
-13 -17 -45 0
2 18 43 0
-2 -18 -43 0
8 18 44 0
-8 -18 -44 0
14 18 45 0
-14 -18 -45 0
3 19 43 0
-3 -19 -43 0
9 19 44 0
-9 -19 -44 0
15 19 45 0
-15 -19 -45 0
4 20 43 0
-4 -20 -43 0
10 20 44 0
-10 -20 -44 0
16 20 45 0
-16 -20 -45 0
5 21 43 0
-5 -21 -43 0
11 21 44 0
-11 -21 -44 0
17 21 45 0
-17 -21 -45 0
6 22 43 0
-6 -22 -43 0
12 22 44 0
-12 -22 -44 0
18 22 45 0
-18 -22 -45 0
1 23 42 0
-1 -23 -42 0
7 23 43 0
-7 -23 -43 0
13 23 44 0
-13 -23 -44 0
19 23 45 0
-19 -23 -45 0
2 24 42 0
-2 -24 -42 0
8 24 43 0
-8 -24 -43 0
14 24 44 0
-14 -24 -44 0
20 24 45 0
-20 -24 -45 0
3 25 42 0
-3 -25 -42 0
9 25 43 0
-9 -25 -43 0
15 25 44 0
-15 -25 -44 0
21 25 45 0
-21 -25 -45 0
4 26 42 0
-4 -26 -42 0
10 26 43 0
-10 -26 -43 0
16 26 44 0
-16 -26 -44 0
22 26 45 0
-22 -26 -45 0
5 27 42 0
-5 -27 -42 0
11 27 43 0
-11 -27 -43 0
17 27 44 0
-17 -27 -44 0
23 27 45 0
-23 -27 -45 0
6 28 42 0
-6 -28 -42 0
12 28 43 0
-12 -28 -43 0
18 28 44 0
-18 -28 -44 0
24 28 45 0
-24 -28 -45 0
1 29 41 0
-1 -29 -41 0
7 29 42 0
-7 -29 -42 0
13 29 43 0
-13 -29 -43 0
19 29 44 0
-19 -29 -44 0
25 29 45 0
-25 -29 -45 0
2 30 41 0
-2 -30 -41 0
8 30 42 0
-8 -30 -42 0
14 30 43 0
-14 -30 -43 0
20 30 44 0
-20 -30 -44 0
26 30 45 0
-26 -30 -45 0
3 31 41 0
-3 -31 -41 0
9 31 42 0
-9 -31 -42 0
15 31 43 0
-15 -31 -43 0
21 31 44 0
-21 -31 -44 0
27 31 45 0
-27 -31 -45 0
4 32 41 0
-4 -32 -41 0
10 32 42 0
-10 -32 -42 0
16 32 43 0
-16 -32 -43 0
22 32 44 0
-22 -32 -44 0
28 32 45 0
-28 -32 -45 0
5 33 41 0
-5 -33 -41 0
11 33 42 0
-11 -33 -42 0
17 33 43 0
-17 -33 -43 0
23 33 44 0
-23 -33 -44 0
29 33 45 0
-29 -33 -45 0
6 34 41 0
-6 -34 -41 0
12 34 42 0
-12 -34 -42 0
18 34 43 0
-18 -34 -43 0
24 34 44 0
-24 -34 -44 0
30 34 45 0
-30 -34 -45 0
1 35 40 0
-1 -35 -40 0
7 35 41 0
-7 -35 -41 0
13 35 42 0
-13 -35 -42 0
19 35 43 0
-19 -35 -43 0
25 35 44 0
-25 -35 -44 0
31 35 45 0
-31 -35 -45 0
2 36 40 0
-2 -36 -40 0
8 36 41 0
-8 -36 -41 0
14 36 42 0
-14 -36 -42 0
20 36 43 0
-20 -36 -43 0
26 36 44 0
-26 -36 -44 0
32 36 45 0
-32 -36 -45 0
3 37 40 0
-3 -37 -40 0
9 37 41 0
-9 -37 -41 0
15 37 42 0
-15 -37 -42 0
21 37 43 0
-21 -37 -43 0
27 37 44 0
-27 -37 -44 0
33 37 45 0
-33 -37 -45 0
4 38 40 0
-4 -38 -40 0
10 38 41 0
-10 -38 -41 0
16 38 42 0
-16 -38 -42 0
22 38 43 0
-22 -38 -43 0
28 38 44 0
-28 -38 -44 0
34 38 45 0
-34 -38 -45 0
5 39 40 0
-5 -39 -40 0
11 39 41 0
-11 -39 -41 0
17 39 42 0
-17 -39 -42 0
23 39 43 0
-23 -39 -43 0
29 39 44 0
-29 -39 -44 0
35 39 45 0
-35 -39 -45 0
6 40 0
-6 -40 0
12 40 41 0
-12 -40 -41 0
18 40 42 0
-18 -40 -42 0
24 40 43 0
-24 -40 -43 0
30 40 44 0
-30 -40 -44 0
36 40 45 0
-36 -40 -45 0
1 39 41 0
-1 -39 -41 0
7 40 41 0
-7 -40 -41 0
13 41 0
-13 -41 0
19 41 42 0
-19 -41 -42 0
25 41 43 0
-25 -41 -43 0
31 41 44 0
-31 -41 -44 0
37 41 45 0
-37 -41 -45 0
2 39 42 0
-2 -39 -42 0
8 40 42 0
-8 -40 -42 0
14 41 42 0
-14 -41 -42 0
20 42 0
-20 -42 0
26 42 43 0
-26 -42 -43 0
32 42 44 0
-32 -42 -44 0
38 42 45 0
-38 -42 -45 0
3 39 43 0
-3 -39 -43 0
9 40 43 0
-9 -40 -43 0
15 41 43 0
-15 -41 -43 0
21 42 43 0
-21 -42 -43 0
27 43 0
-27 -43 0
33 43 44 0
-33 -43 -44 0
39 43 45 0
-39 -43 -45 0
4 39 44 0
-4 -39 -44 0
10 40 44 0
-10 -40 -44 0
16 41 44 0
-16 -41 -44 0
22 42 44 0
-22 -42 -44 0
28 43 44 0
-28 -43 -44 0
34 44 0
-34 -44 0
40 44 45 0
-40 -44 -45 0
5 39 45 0
-5 -39 -45 0
11 40 45 0
-11 -40 -45 0
17 41 45 0
-17 -41 -45 0
23 42 45 0
-23 -42 -45 0
29 43 45 0
-29 -43 -45 0
35 44 45 0
-35 -44 -45 0
41 45 0
-41 -45 0
