certificates/rado_a6_c274_N45.drat
-45 0
41 0
-13 0
9 0
17 0
-37 0
33 0
-5 0
-43 0
1 0
39 0
27 0
29 0
21 0
0
